%SETS
JOBS     = 1..5;
MACHINES = 1..100;
SPEED    = 5;

time        = array3d(JOBS,MACHINES,1..SPEED,[18, 6, 4, 3, 3, 151, 52, 37, 30, 27, 107, 36, 26, 21, 19, 6, 2, 1, 1, 1, 49, 16, 12, 9, 8, 43, 14, 10, 8, 7, 6, 2, 1, 1, 1, 27, 9, 6, 5, 4, 97, 33, 23, 19, 17, 34, 11, 8, 6, 6, 2, 1, 1, 1, 1, 17, 6, 4, 3, 3, 16, 5, 3, 3, 2, 1, 1, 1, 1, 1, 116, 40, 28, 23, 20, 54, 18, 13, 11, 9, 6, 2, 1, 1, 1, 24, 8, 5, 4, 4, 16, 5, 4, 3, 2, 11, 3, 2, 2, 2, 19, 6, 4, 3, 3, 21, 7, 5, 4, 3, 46, 16, 11, 9, 8, 1, 1, 1, 1, 1, 24, 8, 5, 4, 4, 18, 6, 4, 3, 3, 4, 1, 1, 1, 1, 4, 1, 1, 1, 1, 26, 9, 6, 5, 4, 55, 19, 13, 11, 9, 1, 1, 1, 1, 1, 14, 4, 3, 2, 2, 54, 18, 13, 11, 9, 16, 5, 4, 3, 3, 11, 4, 2, 2, 2, 7, 2, 1, 1, 1, 1, 1, 1, 1, 1, 4, 1, 1, 1, 1, 21, 7, 5, 4, 3, 19, 6, 4, 3, 3, 20, 7, 4, 4, 3, 9, 3, 2, 1, 1, 51, 17, 12, 10, 9, 48, 16, 11, 9, 8, 16, 5, 3, 3, 2, 36, 12, 8, 7, 6, 39, 13, 9, 8, 7, 11, 4, 2, 2, 2, 5, 1, 1, 1, 1, 7, 2, 1, 1, 1, 7, 2, 1, 1, 1, 12, 4, 3, 2, 2, 1, 1, 1, 1, 1, 8, 2, 2, 1, 1, 19, 6, 4, 4, 3, 14, 4, 3, 2, 2, 19, 6, 4, 3, 3, 34, 12, 8, 7, 6, 69, 23, 16, 14, 12, 10, 3, 2, 2, 1, 8, 2, 2, 1, 1, 16, 5, 4, 3, 3, 24, 8, 5, 4, 4, 5, 1, 1, 1, 1, 1, 1, 1, 1, 1, 5, 2, 1, 1, 1, 7, 2, 1, 1, 1, 14, 5, 3, 3, 2, 25, 8, 6, 5, 4, 9, 3, 2, 1, 1, 95, 33, 23, 19, 17, 53, 18, 12, 10, 9, 25, 8, 6, 5, 4, 10, 3, 2, 2, 1, 4, 1, 1, 1, 1, 27, 9, 6, 5, 5, 32, 11, 7, 6, 5, 1, 1, 1, 1, 1, 38, 13, 9, 7, 6, 56, 19, 13, 11, 10, 25, 8, 6, 5, 4, 31, 10, 7, 6, 5, 51, 17, 12, 10, 9, 76, 26, 18, 15, 13, 11, 3, 2, 2, 2, 1, 1, 1, 1, 1, 9, 3, 2, 1, 1, 4, 1, 1, 1, 1, 12, 4, 2, 2, 2, 18, 6, 4, 3, 3, 40, 13, 9, 8, 7, 78, 27, 19, 16, 14, 8, 3, 2, 1, 1, 78, 27, 19, 15, 14, 5, 1, 1, 1, 1, 15, 5, 3, 3, 2, 5, 1, 1, 1, 1, 7, 2, 1, 1, 1, 1, 1, 1, 1, 1, 7, 2, 1, 1, 1, 12, 4, 3, 2, 2, 17, 6, 4, 3, 3, 9, 3, 2, 1, 1, 1, 1, 1, 1, 1, 54, 18, 13, 11, 9, 6, 2, 1, 1, 1, 6, 2, 1, 1, 1, 1, 1, 1, 1, 1, 7, 2, 1, 1, 1, 8, 2, 2, 1, 1, 22, 7, 5, 4, 3, 19, 6, 4, 3, 3, 41, 14, 10, 8, 7, 38, 13, 9, 7, 7, 68, 23, 16, 14, 12, 19, 6, 4, 3, 3, 70, 24, 17, 14, 12, 43, 15, 10, 8, 7, 5, 1, 1, 1, 1, 30, 10, 7, 6, 5, 63, 22, 15, 12, 11, 60, 20, 14, 12, 10, 51, 17, 12, 10, 9, 26, 9, 6, 5, 4, 83, 28, 20, 16, 14, 7, 2, 1, 1, 1, 30, 10, 7, 6, 5, 3, 1, 1, 1, 1, 28, 9, 6, 5, 5, 32, 11, 7, 6, 5, 28, 9, 7, 5, 5, 17, 6, 4, 3, 3, 13, 4, 3, 2, 2, 52, 18, 12, 10, 9, 16, 5, 4, 3, 2, 9, 3, 2, 2, 1, 1, 1, 1, 1, 1, 27, 9, 6, 5, 5, 36, 12, 8, 7, 6, 18, 6, 4, 3, 3, 33, 11, 8, 6, 6, 26, 9, 6, 5, 4, 18, 6, 4, 3, 3, 5, 1, 1, 1, 1, 11, 3, 2, 2, 2, 33, 11, 8, 6, 6, 35, 12, 8, 7, 6, 1, 1, 1, 1, 1, 14, 4, 3, 2, 2, 24, 8, 5, 4, 4, 34, 11, 8, 6, 6, 13, 4, 3, 2, 2, 20, 7, 4, 4, 3, 12, 4, 3, 2, 2, 10, 3, 2, 2, 1, 10, 3, 2, 2, 1, 44, 15, 10, 9, 8, 2, 1, 1, 1, 1, 1, 1, 1, 1, 1, 29, 10, 7, 6, 5, 11, 4, 2, 2, 2, 72, 25, 17, 14, 13, 4, 1, 1, 1, 1, 13, 4, 3, 2, 2, 13, 4, 3, 2, 2, 18, 6, 4, 3, 3, 4, 1, 1, 1, 1, 104, 36, 25, 21, 18, 25, 8, 6, 5, 4, 68, 23, 16, 13, 12, 26, 9, 6, 5, 4, 26, 9, 6, 5, 4, 23, 8, 5, 4, 4, 7, 2, 1, 1, 1, 8, 3, 2, 1, 1, 4, 1, 1, 1, 1, 31, 10, 7, 6, 5, 50, 17, 12, 10, 9, 6, 2, 1, 1, 1, 1, 1, 1, 1, 1, 13, 4, 3, 2, 2, 87, 30, 21, 17, 15, 4, 1, 1, 1, 1, 20, 7, 5, 4, 3, 38, 13, 9, 7, 6, 5, 1, 1, 1, 1, 11, 3, 2, 2, 1, 6, 2, 1, 1, 1, 16, 5, 3, 3, 2, 70, 24, 17, 14, 12, 25, 8, 6, 5, 4, 3, 1, 1, 1, 1, 10, 3, 2, 2, 1, 31, 10, 7, 6, 5, 134, 46, 33, 27, 24, 11, 4, 2, 2, 2, 18, 6, 4, 3, 3, 6, 2, 1, 1, 1, 11, 3, 2, 2, 1, 3, 1, 1, 1, 1, 5, 1, 1, 1, 1, 9, 3, 2, 1, 1, 1, 1, 1, 1, 1, 8, 2, 2, 1, 1, 2, 1, 1, 1, 1, 1, 1, 1, 1, 1, 86, 29, 21, 17, 15, 10, 3, 2, 2, 1, 30, 10, 7, 6, 5, 8, 2, 2, 1, 1, 15, 5, 3, 3, 2, 44, 15, 10, 9, 7, 40, 14, 9, 8, 7, 19, 6, 4, 3, 3, 11, 3, 2, 2, 2, 10, 3, 2, 2, 1, 55, 19, 13, 11, 9, 3, 1, 1, 1, 1, 12, 4, 3, 2, 2, 1, 1, 1, 1, 1, 26, 8, 6, 5, 4, 73, 25, 18, 15, 13, 21, 7, 5, 4, 3, 11, 4, 2, 2, 2, 9, 3, 2, 1, 1, 31, 10, 7, 6, 5, 4, 1, 1, 1, 1, 33, 11, 8, 6, 5, 4, 1, 1, 1, 1, 8, 2, 2, 1, 1, 92, 32, 22, 18, 16, 10, 3, 2, 2, 1, 84, 29, 20, 17, 15, 59, 20, 14, 12, 10, 5, 1, 1, 1, 1, 1, 1, 1, 1, 1, 12, 4, 2, 2, 2, 30, 10, 7, 6, 5, 77, 26, 19, 15, 13, 11, 3, 2, 2, 2, 11, 4, 2, 2, 2, 3, 1, 1, 1, 1, 36, 12, 8, 7, 6, 16, 5, 4, 3, 2, 17, 5, 4, 3, 3, 5, 1, 1, 1, 1, 1, 1, 1, 1, 1, 30, 10, 7, 6, 5, 17, 5, 4, 3, 3, 45, 15, 11, 9, 8, 1, 1, 1, 1, 1, 46, 15, 11, 9, 8, 47, 16, 11, 9, 8, 8, 2, 2, 1, 1, 10, 3, 2, 2, 1, 33, 11, 8, 6, 6, 34, 11, 8, 7, 6, 40, 14, 10, 8, 7, 2, 1, 1, 1, 1, 15, 5, 3, 3, 2, 49, 17, 12, 10, 8, 117, 40, 28, 23, 21, 33, 11, 8, 6, 5, 42, 14, 10, 8, 7, 3, 1, 1, 1, 1, 101, 34, 24, 20, 18, 10, 3, 2, 2, 1, 5, 1, 1, 1, 1, 28, 9, 7, 5, 5, 1, 1, 1, 1, 1, 14, 4, 3, 2, 2, 30, 10, 7, 6, 5, 1, 1, 1, 1, 1, 10, 3, 2, 2, 1, 3, 1, 1, 1, 1, 3, 1, 1, 1, 1, 72, 25, 17, 14, 13, 2, 1, 1, 1, 1, 16, 5, 4, 3, 2, 10, 3, 2, 2, 1, 69, 24, 17, 14, 12, 22, 7, 5, 4, 4, 29, 10, 7, 5, 5, 16, 5, 3, 3, 2, 28, 9, 6, 5, 5, 1, 1, 1, 1, 1, 19, 6, 4, 3, 3, 52, 18, 12, 10, 9, 19, 6, 4, 3, 3, 13, 4, 3, 2, 2, 2, 1, 1, 1, 1, 27, 9, 6, 5, 4, 29, 10, 7, 6, 5, 31, 10, 7, 6, 5, 7, 2, 1, 1, 1, 13, 4, 3, 2, 2, 16, 5, 4, 3, 3, 8, 2, 2, 1, 1, 12, 4, 3, 2, 2, 1, 1, 1, 1, 1, 17, 6, 4, 3, 3, 13, 4, 3, 2, 2, 13, 4, 3, 2, 2, 5, 1, 1, 1, 1, 17, 6, 4, 3, 3, 27, 9, 6, 5, 4, 25, 8, 6, 5, 4, 49, 17, 12, 10, 8, 1, 1, 1, 1, 1, 5, 2, 1, 1, 1, 22, 7, 5, 4, 4, 68, 23, 16, 13, 12, 52, 18, 12, 10, 9, 15, 5, 3, 3, 2, 119, 41, 29, 24, 21, 3, 1, 1, 1, 1, 9, 3, 2, 1, 1, 1, 1, 1, 1, 1, 11, 4, 2, 2, 2, 6, 2, 1, 1, 1, 7, 2, 1, 1, 1, 86, 29, 21, 17, 15, 11, 3, 2, 2, 1, 1, 1, 1, 1, 1, 27, 9, 6, 5, 4, 73, 25, 17, 14, 13, 18, 6, 4, 3, 3, 29, 10, 7, 5, 5, 99, 34, 24, 20, 17, 14, 4, 3, 2, 2, 37, 13, 9, 7, 6, 1, 1, 1, 1, 1, 24, 8, 6, 5, 4, 12, 4, 3, 2, 2, 58, 20, 14, 11, 10, 9, 3, 2, 1, 1, 8, 2, 2, 1, 1, 11, 4, 2, 2, 2, 1, 1, 1, 1, 1, 11, 3, 2, 2, 1, 5, 1, 1, 1, 1, 43, 15, 10, 8, 7, 2, 1, 1, 1, 1, 1, 1, 1, 1, 1, 18, 6, 4, 3, 3, 24, 8, 5, 4, 4, 17, 5, 4, 3, 3, 3, 1, 1, 1, 1, 19, 6, 4, 4, 3, 42, 14, 10, 8, 7, 49, 17, 12, 10, 8, 57, 19, 14, 11, 10, 40, 13, 9, 8, 7, 74, 25, 18, 15, 13, 10, 3, 2, 2, 1, 4, 1, 1, 1, 1, 33, 11, 8, 6, 5, 24, 8, 6, 5, 4, 1, 1, 1, 1, 1, 55, 19, 13, 11, 9, 33, 11, 8, 6, 6, 12, 4, 3, 2, 2, 26, 9, 6, 5, 4, 15, 5, 3, 3, 2, 4, 1, 1, 1, 1, 14, 5, 3, 3, 2, 13, 4, 3, 2, 2, 1, 1, 1, 1, 1, 1, 1, 1, 1, 1, 35, 12, 8, 7, 6, 38, 13, 9, 7, 6, 30, 10, 7, 6, 5, 5, 1, 1, 1, 1, 29, 10, 7, 5, 5, 1, 1, 1, 1, 1, 55, 19, 13, 11, 9, 1, 1, 1, 1, 1, 23, 8, 5, 4, 4, 1, 1, 1, 1, 1, 24, 8, 6, 5, 4, 1, 1, 1, 1, 1, 28, 9, 7, 5, 5, 22, 7, 5, 4, 4, 16, 5, 4, 3, 3, 9, 3, 2, 1, 1, 15, 5, 3, 3, 2, 44, 15, 10, 9, 8, 12, 4, 2, 2, 2, 4, 1, 1, 1, 1, 29, 10, 7, 6, 5, 23, 8, 5, 4, 4, 20, 7, 5, 4, 3, 17, 6, 4, 3, 3, 5, 2, 1, 1, 1, 37, 12, 9, 7, 6, 27, 9, 6, 5, 4, 53, 18, 13, 10, 9, 24, 8, 6, 5, 4, 28, 9, 6, 5, 5, 12, 4, 2, 2, 2, 11, 3, 2, 2, 2, 14, 5, 3, 3, 2, 19, 6, 4, 4, 3, 151, 52, 37, 30, 27, 10, 3, 2, 2, 1, 5, 1, 1, 1, 1, 3, 1, 1, 1, 1, 38, 13, 9, 7, 7, 3, 1, 1, 1, 1, 2, 1, 1, 1, 1, 147, 50, 36, 29, 26, 59, 20, 14, 12, 10, 40, 13, 9, 8, 7, 7, 2, 1, 1, 1, 5, 1, 1, 1, 1, 29, 10, 7, 5, 5, 1, 1, 1, 1, 1, 16, 5, 4, 3, 2, 64, 22, 15, 13, 11, 25, 8, 6, 5, 4, 11, 3, 2, 2, 2, 48, 16, 11, 9, 8, 2, 1, 1, 1, 1, 26, 9, 6, 5, 4, 26, 9, 6, 5, 4, 56, 19, 13, 11, 10, 56, 19, 13, 11, 10, 6, 2, 1, 1, 1, 13, 4, 3, 2, 2, 11, 3, 2, 2, 1, 46, 16, 11, 9, 8, 17, 6, 4, 3, 3, 32, 11, 7, 6, 5, 2, 1, 1, 1, 1, 10, 3, 2, 2, 1, 38, 13, 9, 7, 6, 1, 1, 1, 1, 1, 9, 3, 2, 1, 1, 3, 1, 1, 1, 1, 35, 12, 8, 7, 6, 1, 1, 1, 1, 1, 3, 1, 1, 1, 1, 18, 6, 4, 3, 3, 28, 9, 6, 5, 5, 7, 2, 1, 1, 1, 40, 13, 9, 8, 7, 71, 24, 17, 14, 12, 41, 14, 10, 8, 7, 2, 1, 1, 1, 1, 32, 11, 7, 6, 5, 10, 3, 2, 2, 1, 28, 9, 6, 5, 5, 18, 6, 4, 3, 3, 30, 10, 7, 6, 5, 5, 1, 1, 1, 1, 38, 13, 9, 7, 6, 39, 13, 9, 8, 7, 58, 20, 14, 11, 10, 102, 35, 25, 20, 18, 17, 6, 4, 3, 3, 16, 5, 3, 3, 2, 17, 5, 4, 3, 3, 8, 2, 2, 1, 1, 24, 8, 5, 4, 4, 44, 15, 10, 9, 8, 1, 1, 1, 1, 1, 7, 2, 1, 1, 1, 23, 8, 5, 4, 4, 25, 8, 6, 5, 4, 16, 5, 4, 3, 2, 18, 6, 4, 3, 3, 36, 12, 8, 7, 6, 44, 15, 11, 9, 8, 9, 3, 2, 2, 1, 20, 7, 5, 4, 3, 14, 5, 3, 2, 2, 5, 1, 1, 1, 1, 8, 3, 2, 1, 1, 133, 45, 32, 27, 23, 10, 3, 2, 2, 1, 1, 1, 1, 1, 1, 21, 7, 5, 4, 3, 38, 13, 9, 7, 6, 8, 2, 2, 1, 1, 1, 1, 1, 1, 1, 16, 5, 4, 3, 2, 53, 18, 12, 10, 9, 34, 12, 8, 7, 6, 11, 3, 2, 2, 2, 57, 19, 14, 11, 10, 36, 12, 9, 7, 6, 10, 3, 2, 2, 1, 61, 21, 15, 12, 11, 14, 5, 3, 3, 2, 11, 4, 2, 2, 2, 9, 3, 2, 2, 1, 62, 21, 15, 12, 11, 36, 12, 8, 7, 6, 39, 13, 9, 7, 7, 26, 9, 6, 5, 4]);
energy      = array3d(JOBS,MACHINES,1..SPEED,[83, 94, 96, 97, 97, 22, 59, 69, 74, 76, 34, 69, 77, 81, 82, 94, 98, 99, 99, 99, 61, 85, 88, 91, 92, 65, 86, 90, 92, 93, 94, 98, 99, 99, 99, 76, 91, 94, 95, 96, 37, 71, 79, 82, 84, 71, 89, 92, 94, 94, 98, 99, 99, 99, 99, 84, 94, 96, 97, 97, 85, 95, 97, 97, 98, 99, 99, 99, 99, 99, 31, 67, 75, 79, 81, 58, 83, 87, 89, 91, 94, 98, 99, 99, 99, 78, 92, 95, 96, 96, 85, 95, 96, 97, 98, 89, 97, 98, 98, 98, 82, 94, 96, 97, 97, 81, 93, 95, 96, 97, 63, 85, 89, 91, 92, 99, 99, 99, 99, 99, 78, 92, 95, 96, 96, 83, 94, 96, 97, 97, 96, 99, 99, 99, 99, 96, 99, 99, 99, 99, 77, 91, 94, 95, 96, 57, 82, 87, 89, 91, 99, 99, 99, 99, 99, 86, 96, 97, 98, 98, 58, 83, 87, 89, 91, 85, 95, 96, 97, 97, 89, 96, 98, 98, 98, 93, 98, 99, 99, 99, 99, 99, 99, 99, 99, 96, 99, 99, 99, 99, 81, 93, 95, 96, 97, 82, 94, 96, 97, 97, 81, 93, 96, 96, 97, 91, 97, 98, 99, 99, 60, 84, 88, 90, 91, 61, 85, 89, 91, 92, 85, 95, 97, 97, 98, 69, 88, 92, 93, 94, 67, 87, 91, 92, 93, 89, 96, 98, 98, 98, 95, 99, 99, 99, 99, 93, 98, 99, 99, 99, 93, 98, 99, 99, 99, 88, 96, 97, 98, 98, 99, 99, 99, 99, 99, 92, 98, 98, 99, 99, 82, 94, 96, 96, 97, 86, 96, 97, 98, 98, 82, 94, 96, 97, 97, 71, 88, 92, 93, 94, 50, 79, 85, 86, 88, 90, 97, 98, 98, 99, 92, 98, 98, 99, 99, 85, 95, 96, 97, 97, 78, 92, 95, 96, 96, 95, 99, 99, 99, 99, 99, 99, 99, 99, 99, 95, 98, 99, 99, 99, 93, 98, 99, 99, 99, 86, 95, 97, 97, 98, 77, 92, 94, 95, 96, 91, 97, 98, 99, 99, 38, 71, 79, 82, 84, 58, 83, 88, 90, 91, 77, 92, 94, 95, 96, 90, 97, 98, 98, 99, 96, 99, 99, 99, 99, 76, 91, 94, 95, 95, 72, 89, 93, 94, 95, 99, 99, 99, 99, 99, 68, 87, 91, 93, 94, 57, 82, 87, 89, 90, 77, 92, 94, 95, 96, 73, 90, 93, 94, 95, 60, 84, 88, 90, 91, 46, 77, 83, 86, 87, 89, 97, 98, 98, 98, 99, 99, 99, 99, 99, 91, 97, 98, 99, 99, 96, 99, 99, 99, 99, 88, 96, 98, 98, 98, 83, 94, 96, 97, 97, 67, 87, 91, 92, 93, 45, 76, 82, 85, 86, 92, 97, 98, 99, 99, 45, 76, 82, 86, 86, 95, 99, 99, 99, 99, 86, 95, 97, 97, 98, 95, 99, 99, 99, 99, 93, 98, 99, 99, 99, 99, 99, 99, 99, 99, 93, 98, 99, 99, 99, 88, 96, 97, 98, 98, 84, 94, 96, 97, 97, 91, 97, 98, 99, 99, 99, 99, 99, 99, 99, 58, 83, 87, 89, 91, 94, 98, 99, 99, 99, 94, 98, 99, 99, 99, 99, 99, 99, 99, 99, 93, 98, 99, 99, 99, 92, 98, 98, 99, 99, 80, 93, 95, 96, 97, 82, 94, 96, 97, 97, 66, 86, 90, 92, 93, 68, 87, 91, 93, 93, 50, 79, 85, 86, 88, 82, 94, 96, 97, 97, 49, 78, 84, 86, 88, 65, 86, 90, 92, 93, 95, 99, 99, 99, 99, 74, 90, 93, 94, 95, 53, 80, 86, 88, 89, 54, 81, 86, 88, 90, 60, 84, 88, 90, 91, 77, 91, 94, 95, 96, 43, 75, 81, 85, 86, 93, 98, 99, 99, 99, 74, 90, 93, 94, 95, 97, 99, 99, 99, 99, 75, 91, 94, 95, 95, 72, 89, 93, 94, 95, 75, 91, 93, 95, 95, 84, 94, 96, 97, 97, 87, 96, 97, 98, 98, 59, 83, 88, 90, 91, 85, 95, 96, 97, 98, 91, 97, 98, 98, 99, 99, 99, 99, 99, 99, 76, 91, 94, 95, 95, 69, 88, 92, 93, 94, 83, 94, 96, 97, 97, 71, 89, 92, 94, 94, 77, 91, 94, 95, 96, 83, 94, 96, 97, 97, 95, 99, 99, 99, 99, 89, 97, 98, 98, 98, 71, 89, 92, 94, 94, 70, 88, 92, 93, 94, 99, 99, 99, 99, 99, 86, 96, 97, 98, 98, 78, 92, 95, 96, 96, 71, 89, 92, 94, 94, 87, 96, 97, 98, 98, 81, 93, 96, 96, 97, 88, 96, 97, 98, 98, 90, 97, 98, 98, 99, 90, 97, 98, 98, 99, 64, 86, 90, 91, 92, 98, 99, 99, 99, 99, 99, 99, 99, 99, 99, 74, 90, 93, 94, 95, 89, 96, 98, 98, 98, 48, 77, 84, 86, 87, 96, 99, 99, 99, 99, 87, 96, 97, 98, 98, 87, 96, 97, 98, 98, 83, 94, 96, 97, 97, 96, 99, 99, 99, 99, 35, 69, 77, 81, 83, 77, 92, 94, 95, 96, 50, 79, 85, 87, 88, 77, 91, 94, 95, 96, 77, 91, 94, 95, 96, 79, 92, 95, 96, 96, 93, 98, 99, 99, 99, 92, 97, 98, 99, 99, 96, 99, 99, 99, 99, 73, 90, 93, 94, 95, 60, 84, 88, 90, 91, 94, 98, 99, 99, 99, 99, 99, 99, 99, 99, 87, 96, 97, 98, 98, 41, 74, 81, 84, 86, 96, 99, 99, 99, 99, 81, 93, 95, 96, 97, 68, 87, 91, 93, 94, 95, 99, 99, 99, 99, 89, 97, 98, 98, 99, 94, 98, 99, 99, 99, 85, 95, 97, 97, 98, 49, 78, 84, 86, 88, 77, 92, 94, 95, 96, 97, 99, 99, 99, 99, 90, 97, 98, 98, 99, 73, 90, 93, 94, 95, 26, 63, 71, 76, 78, 89, 96, 98, 98, 98, 83, 94, 96, 97, 97, 94, 98, 99, 99, 99, 89, 97, 98, 98, 99, 97, 99, 99, 99, 99, 95, 99, 99, 99, 99, 91, 97, 98, 99, 99, 99, 99, 99, 99, 99, 92, 98, 98, 99, 99, 98, 99, 99, 99, 99, 99, 99, 99, 99, 99, 42, 74, 81, 84, 86, 90, 97, 98, 98, 99, 74, 90, 93, 94, 95, 92, 98, 98, 99, 99, 86, 95, 97, 97, 98, 64, 86, 90, 91, 93, 67, 86, 91, 92, 93, 82, 94, 96, 97, 97, 89, 97, 98, 98, 98, 90, 97, 98, 98, 99, 57, 82, 87, 89, 91, 97, 99, 99, 99, 99, 88, 96, 97, 98, 98, 99, 99, 99, 99, 99, 77, 92, 94, 95, 96, 48, 77, 83, 86, 87, 81, 93, 95, 96, 97, 89, 96, 98, 98, 98, 91, 97, 98, 99, 99, 73, 90, 93, 94, 95, 96, 99, 99, 99, 99, 71, 89, 92, 94, 95, 96, 99, 99, 99, 99, 92, 98, 98, 99, 99, 39, 72, 80, 83, 85, 90, 97, 98, 98, 99, 43, 74, 81, 84, 86, 55, 81, 86, 88, 90, 95, 99, 99, 99, 99, 99, 99, 99, 99, 99, 88, 96, 98, 98, 98, 74, 90, 93, 94, 95, 46, 77, 82, 86, 87, 89, 97, 98, 98, 98, 89, 96, 98, 98, 98, 97, 99, 99, 99, 99, 69, 88, 92, 93, 94, 85, 95, 96, 97, 98, 84, 95, 96, 97, 97, 95, 99, 99, 99, 99, 99, 99, 99, 99, 99, 74, 90, 93, 94, 95, 84, 95, 96, 97, 97, 63, 86, 89, 91, 92, 99, 99, 99, 99, 99, 63, 86, 89, 91, 92, 62, 85, 89, 91, 92, 92, 98, 98, 99, 99, 90, 97, 98, 98, 99, 71, 89, 92, 94, 94, 71, 89, 92, 93, 94, 67, 86, 90, 92, 93, 98, 99, 99, 99, 99, 86, 95, 97, 97, 98, 61, 84, 88, 90, 92, 31, 67, 75, 79, 81, 71, 89, 92, 94, 95, 65, 86, 90, 92, 93, 97, 99, 99, 99, 99, 36, 71, 78, 81, 83, 90, 97, 98, 98, 99, 95, 99, 99, 99, 99, 75, 91, 93, 95, 95, 99, 99, 99, 99, 99, 86, 96, 97, 98, 98, 74, 90, 93, 94, 95, 99, 99, 99, 99, 99, 90, 97, 98, 98, 99, 97, 99, 99, 99, 99, 97, 99, 99, 99, 99, 48, 77, 84, 86, 87, 98, 99, 99, 99, 99, 85, 95, 96, 97, 98, 90, 97, 98, 98, 99, 50, 78, 84, 86, 88, 80, 93, 95, 96, 96, 74, 90, 93, 95, 95, 85, 95, 97, 97, 98, 75, 91, 94, 95, 95, 99, 99, 99, 99, 99, 82, 94, 96, 97, 97, 59, 83, 88, 90, 91, 82, 94, 96, 97, 97, 87, 96, 97, 98, 98, 98, 99, 99, 99, 99, 76, 91, 94, 95, 96, 74, 90, 93, 94, 95, 73, 90, 93, 94, 95, 93, 98, 99, 99, 99, 87, 96, 97, 98, 98, 85, 95, 96, 97, 97, 92, 98, 98, 99, 99, 88, 96, 97, 98, 98, 99, 99, 99, 99, 99, 84, 94, 96, 97, 97, 87, 96, 97, 98, 98, 87, 96, 97, 98, 98, 95, 99, 99, 99, 99, 84, 94, 96, 97, 97, 76, 91, 94, 95, 96, 77, 92, 94, 95, 96, 61, 84, 88, 90, 92, 99, 99, 99, 99, 99, 95, 98, 99, 99, 99, 80, 93, 95, 96, 96, 50, 79, 85, 87, 88, 59, 83, 88, 90, 91, 86, 95, 97, 97, 98, 30, 66, 74, 78, 81, 97, 99, 99, 99, 99, 91, 97, 98, 99, 99, 99, 99, 99, 99, 99, 89, 96, 98, 98, 98, 94, 98, 99, 99, 99, 93, 98, 99, 99, 99, 42, 74, 81, 84, 86, 89, 97, 98, 98, 99, 99, 99, 99, 99, 99, 76, 91, 94, 95, 96, 48, 77, 84, 86, 87, 83, 94, 96, 97, 97, 74, 90, 93, 95, 95, 37, 71, 78, 81, 84, 86, 96, 97, 98, 98, 69, 87, 91, 93, 94, 99, 99, 99, 99, 99, 78, 92, 94, 95, 96, 88, 96, 97, 98, 98, 55, 81, 86, 89, 90, 91, 97, 98, 99, 99, 92, 98, 98, 99, 99, 89, 96, 98, 98, 98, 99, 99, 99, 99, 99, 89, 97, 98, 98, 99, 95, 99, 99, 99, 99, 65, 86, 90, 92, 93, 98, 99, 99, 99, 99, 99, 99, 99, 99, 99, 83, 94, 96, 97, 97, 78, 92, 95, 96, 96, 84, 95, 96, 97, 97, 97, 99, 99, 99, 99, 82, 94, 96, 96, 97, 65, 86, 90, 92, 93, 61, 84, 88, 90, 92, 56, 82, 86, 89, 90, 67, 87, 91, 92, 93, 47, 77, 83, 86, 87, 90, 97, 98, 98, 99, 96, 99, 99, 99, 99, 71, 89, 92, 94, 95, 78, 92, 94, 95, 96, 99, 99, 99, 99, 99, 57, 82, 87, 89, 91, 71, 89, 92, 94, 94, 88, 96, 97, 98, 98, 77, 91, 94, 95, 96, 86, 95, 97, 97, 98, 96, 99, 99, 99, 99, 86, 95, 97, 97, 98, 87, 96, 97, 98, 98, 99, 99, 99, 99, 99, 99, 99, 99, 99, 99, 70, 88, 92, 93, 94, 68, 87, 91, 93, 94, 74, 90, 93, 94, 95, 95, 99, 99, 99, 99, 74, 90, 93, 95, 95, 99, 99, 99, 99, 99, 57, 82, 87, 89, 91, 99, 99, 99, 99, 99, 79, 92, 95, 96, 96, 99, 99, 99, 99, 99, 78, 92, 94, 95, 96, 99, 99, 99, 99, 99, 75, 91, 93, 95, 95, 80, 93, 95, 96, 96, 85, 95, 96, 97, 97, 91, 97, 98, 99, 99, 86, 95, 97, 97, 98, 64, 86, 90, 91, 92, 88, 96, 98, 98, 98, 96, 99, 99, 99, 99, 74, 90, 93, 94, 95, 79, 92, 95, 96, 96, 81, 93, 95, 96, 97, 84, 94, 96, 97, 97, 95, 98, 99, 99, 99, 69, 88, 91, 93, 94, 76, 91, 94, 95, 96, 58, 83, 87, 90, 91, 78, 92, 94, 95, 96, 75, 91, 94, 95, 95, 88, 96, 98, 98, 98, 89, 97, 98, 98, 98, 86, 95, 97, 97, 98, 82, 94, 96, 96, 97, 22, 59, 69, 74, 76, 90, 97, 98, 98, 99, 95, 99, 99, 99, 99, 97, 99, 99, 99, 99, 68, 87, 91, 93, 93, 97, 99, 99, 99, 99, 98, 99, 99, 99, 99, 22, 60, 69, 74, 77, 55, 81, 86, 88, 90, 67, 87, 91, 92, 93, 93, 98, 99, 99, 99, 95, 99, 99, 99, 99, 74, 90, 93, 95, 95, 99, 99, 99, 99, 99, 85, 95, 96, 97, 98, 52, 80, 86, 87, 89, 77, 92, 94, 95, 96, 89, 97, 98, 98, 98, 61, 85, 89, 91, 92, 98, 99, 99, 99, 99, 77, 91, 94, 95, 96, 77, 91, 94, 95, 96, 57, 82, 87, 89, 90, 57, 82, 87, 89, 90, 94, 98, 99, 99, 99, 87, 96, 97, 98, 98, 89, 97, 98, 98, 99, 63, 85, 89, 91, 92, 84, 94, 96, 97, 97, 72, 89, 93, 94, 95, 98, 99, 99, 99, 99, 90, 97, 98, 98, 99, 68, 87, 91, 93, 94, 99, 99, 99, 99, 99, 91, 97, 98, 99, 99, 97, 99, 99, 99, 99, 70, 88, 92, 93, 94, 99, 99, 99, 99, 99, 97, 99, 99, 99, 99, 83, 94, 96, 97, 97, 75, 91, 94, 95, 95, 93, 98, 99, 99, 99, 67, 87, 91, 92, 93, 49, 78, 84, 86, 88, 66, 86, 90, 92, 93, 98, 99, 99, 99, 99, 72, 89, 93, 94, 95, 90, 97, 98, 98, 99, 75, 91, 94, 95, 95, 83, 94, 96, 97, 97, 74, 90, 93, 94, 95, 95, 99, 99, 99, 99, 68, 87, 91, 93, 94, 67, 87, 91, 92, 93, 55, 81, 86, 89, 90, 36, 70, 77, 81, 83, 84, 94, 96, 97, 97, 85, 95, 97, 97, 98, 84, 95, 96, 97, 97, 92, 98, 98, 99, 99, 78, 92, 95, 96, 96, 64, 86, 90, 91, 92, 99, 99, 99, 99, 99, 93, 98, 99, 99, 99, 79, 92, 95, 96, 96, 77, 92, 94, 95, 96, 85, 95, 96, 97, 98, 83, 94, 96, 97, 97, 69, 88, 92, 93, 94, 64, 86, 89, 91, 92, 91, 97, 98, 98, 99, 81, 93, 95, 96, 97, 86, 95, 97, 98, 98, 95, 99, 99, 99, 99, 92, 97, 98, 99, 99, 26, 63, 72, 76, 79, 90, 97, 98, 98, 99, 99, 99, 99, 99, 99, 81, 93, 95, 96, 97, 68, 87, 91, 93, 94, 92, 98, 98, 99, 99, 99, 99, 99, 99, 99, 85, 95, 96, 97, 98, 58, 83, 88, 90, 91, 71, 88, 92, 93, 94, 89, 97, 98, 98, 98, 56, 82, 86, 89, 90, 69, 88, 91, 93, 94, 90, 97, 98, 98, 99, 54, 81, 86, 88, 89, 86, 95, 97, 97, 98, 89, 96, 98, 98, 98, 91, 97, 98, 98, 99, 53, 81, 86, 88, 89, 69, 88, 92, 93, 94, 67, 87, 91, 93, 93, 77, 91, 94, 95, 96]);
precedence  = array2d(JOBS,MACHINES,[43, 79, 7, 9, 31, 16, 6, 11, 46, 81, 97, 61, 13, 62, 70, 74, 1, 53, 40, 60, 15, 32, 87, 27, 56, 64, 42, 96, 73, 10, 3, 29, 48, 75, 91, 71, 45, 33, 58, 26, 39, 94, 77, 51, 95, 49, 41, 52, 20, 82, 72, 19, 66, 8, 93, 25, 68, 24, 63, 38, 83, 28, 36, 22, 2, 21, 99, 44, 50, 54, 37, 69, 76, 55, 78, 18, 12, 89, 65, 30, 86, 0, 88, 23, 4, 84, 80, 85, 67, 34, 57, 35, 5, 47, 14, 98, 17, 90, 92, 59, 99, 42, 81, 76, 12, 73, 62, 16, 79, 10, 43, 75, 90, 65, 77, 15, 83, 21, 23, 38, 64, 14, 60, 5, 47, 51, 67, 57, 53, 66, 74, 1, 2, 61, 35, 34, 71, 70, 85, 94, 49, 78, 29, 52, 28, 40, 17, 39, 4, 3, 98, 96, 32, 50, 68, 44, 33, 93, 63, 19, 9, 11, 30, 84, 20, 54, 0, 27, 69, 36, 18, 26, 80, 72, 24, 46, 8, 6, 45, 87, 86, 58, 59, 41, 37, 56, 13, 91, 31, 95, 48, 97, 7, 92, 82, 89, 25, 88, 22, 55, 85, 14, 17, 2, 67, 92, 3, 59, 91, 62, 12, 76, 45, 68, 83, 27, 70, 42, 6, 0, 9, 44, 71, 43, 73, 16, 28, 19, 79, 57, 90, 65, 77, 78, 98, 99, 36, 53, 75, 38, 20, 48, 66, 86, 80, 30, 81, 39, 37, 26, 49, 13, 64, 50, 25, 60, 22, 94, 29, 95, 82, 23, 5, 34, 32, 96, 15, 93, 88, 51, 18, 74, 58, 55, 87, 11, 10, 40, 69, 7, 54, 61, 56, 31, 52, 47, 97, 21, 84, 89, 41, 4, 8, 1, 33, 63, 46, 72, 35, 24, 72, 93, 50, 46, 80, 99, 7, 4, 3, 13, 86, 12, 58, 65, 89, 48, 70, 43, 97, 21, 31, 52, 38, 63, 11, 40, 19, 56, 69, 47, 28, 30, 92, 91, 85, 14, 64, 96, 34, 51, 84, 49, 75, 73, 25, 8, 35, 2, 15, 24, 39, 94, 87, 62, 6, 68, 71, 95, 83, 18, 79, 33, 77, 37, 41, 74, 78, 22, 59, 55, 81, 67, 1, 26, 36, 90, 60, 10, 57, 27, 16, 53, 88, 23, 9, 32, 61, 98, 82, 66, 5, 45, 20, 29, 0, 42, 17, 44, 76, 54, 97, 48, 17, 27, 19, 94, 59, 93, 82, 44, 14, 47, 51, 76, 96, 68, 92, 73, 84, 16, 45, 15, 87, 30, 62, 56, 13, 63, 34, 88, 26, 75, 74, 25, 90, 53, 22, 23, 85, 89, 6, 20, 64, 83, 49, 54, 38, 77, 33, 18, 98, 58, 39, 55, 12, 3, 99, 46, 35, 50, 43, 29, 65, 80, 95, 11, 41, 36, 57, 21, 52, 9, 86, 32, 42, 5, 81, 61, 40, 69, 1, 2, 79, 70, 91, 37, 10, 66, 7, 71, 4, 28, 72, 60, 67, 78, 0, 31, 8, 24]);
releaseDate = array2d(JOBS,MACHINES,[377, 836, 48, 106, 258, 154, 47, 122, 390, 936, 1001, 564, 138, 569, 634, 794, 38, 526, 357, 561, 143, 271, 959, 233, 539, 589, 376, 1000, 788, 107, 40, 242, 449, 809, 986, 786, 389, 277, 555, 224, 352, 993, 821, 506, 996, 470, 363, 524, 180, 946, 787, 176, 609, 104, 989, 221, 613, 212, 571, 350, 947, 234, 321, 183, 39, 182, 1006, 384, 498, 531, 327, 617, 814, 533, 835, 168, 129, 984, 593, 245, 951, 30, 970, 184, 41, 949, 934, 950, 610, 278, 546, 282, 43, 423, 142, 1002, 166, 985, 988, 560, 759, 333, 610, 559, 97, 545, 480, 138, 598, 72, 337, 555, 689, 498, 560, 133, 645, 174, 189, 310, 482, 113, 446, 35, 346, 387, 519, 414, 389, 508, 548, 11, 16, 463, 277, 275, 542, 536, 667, 716, 374, 591, 237, 388, 235, 320, 139, 319, 32, 21, 751, 742, 254, 383, 527, 342, 259, 715, 481, 159, 70, 75, 248, 662, 166, 405, 10, 207, 529, 282, 148, 196, 600, 543, 190, 345, 63, 41, 344, 685, 680, 415, 445, 328, 298, 413, 111, 707, 249, 724, 367, 750, 61, 708, 612, 687, 192, 686, 187, 411, 689, 202, 217, 79, 504, 740, 83, 459, 728, 477, 184, 573, 383, 505, 680, 308, 515, 357, 136, 70, 157, 361, 530, 359, 540, 207, 310, 221, 635, 456, 705, 493, 586, 609, 796, 797, 334, 412, 551, 345, 233, 398, 495, 690, 636, 312, 643, 348, 336, 295, 399, 188, 482, 400, 291, 461, 247, 744, 311, 758, 644, 259, 127, 318, 316, 761, 204, 743, 695, 402, 218, 542, 458, 444, 694, 183, 165, 355, 510, 140, 421, 472, 447, 313, 403, 397, 790, 235, 684, 702, 356, 120, 142, 71, 317, 479, 393, 537, 328, 290, 558, 728, 362, 345, 599, 772, 47, 14, 13, 97, 633, 80, 435, 485, 657, 349, 545, 321, 767, 165, 246, 367, 270, 480, 70, 291, 155, 415, 513, 346, 229, 245, 705, 702, 619, 98, 482, 765, 256, 365, 617, 351, 567, 563, 190, 56, 257, 12, 101, 176, 272, 732, 638, 462, 44, 512, 548, 754, 616, 128, 590, 253, 574, 264, 312, 564, 586, 166, 450, 407, 606, 502, 11, 197, 263, 687, 451, 63, 434, 221, 105, 397, 651, 167, 61, 247, 452, 770, 615, 491, 35, 334, 160, 244, 0, 314, 106, 323, 568, 404, 837, 524, 207, 252, 218, 823, 604, 814, 747, 479, 146, 496, 533, 702, 836, 640, 813, 685, 754, 200, 480, 184, 796, 323, 611, 577, 131, 622, 346, 797, 240, 696, 689, 238, 809, 548, 227, 228, 769, 799, 91, 220, 623, 748, 527, 558, 385, 703, 344, 211, 840, 596, 415, 570, 130, 58, 842, 482, 349, 528, 475, 319, 627, 737, 824, 129, 468, 375, 590, 221, 544, 105, 770, 342, 469, 86, 746, 609, 421, 651, 51, 53, 719, 653, 812, 381, 115, 629, 93, 655, 74, 317, 669, 605, 638, 713, 30, 331, 95, 231]);
dueDate     = array2d(JOBS,MACHINES,[384, 934, 104, 107, 271, 166, 48, 129, 423, 946, 1002, 569, 142, 571, 786, 809, 39, 531, 363, 564, 154, 277, 970, 234, 546, 593, 377, 1001, 794, 122, 41, 245, 470, 814, 988, 787, 390, 278, 560, 233, 357, 996, 835, 524, 1000, 498, 376, 526, 182, 947, 788, 180, 610, 106, 993, 224, 617, 221, 589, 352, 949, 242, 327, 184, 40, 183, 1007, 389, 506, 533, 350, 634, 821, 539, 836, 176, 138, 985, 609, 258, 959, 38, 984, 212, 43, 950, 936, 951, 613, 282, 555, 321, 47, 449, 143, 1006, 168, 986, 989, 561, 763, 337, 612, 560, 111, 548, 481, 139, 600, 75, 342, 559, 707, 508, 591, 138, 662, 187, 190, 319, 498, 133, 463, 41, 367, 388, 527, 415, 405, 519, 555, 16, 21, 480, 282, 277, 543, 542, 680, 724, 383, 598, 248, 389, 237, 328, 148, 320, 35, 32, 759, 750, 259, 387, 529, 344, 275, 716, 482, 166, 72, 97, 249, 667, 174, 411, 11, 235, 536, 298, 159, 207, 610, 545, 192, 346, 70, 61, 345, 686, 685, 445, 446, 333, 310, 414, 113, 708, 254, 742, 374, 751, 63, 715, 645, 689, 196, 687, 189, 413, 690, 204, 218, 83, 505, 743, 120, 461, 740, 479, 188, 586, 393, 510, 684, 310, 530, 359, 140, 71, 165, 383, 537, 361, 542, 217, 311, 233, 636, 458, 728, 495, 609, 635, 797, 798, 336, 421, 573, 348, 235, 399, 504, 694, 643, 313, 644, 355, 345, 308, 400, 202, 493, 402, 295, 472, 259, 758, 312, 761, 680, 290, 136, 328, 317, 790, 207, 744, 702, 403, 221, 551, 459, 447, 695, 184, 183, 356, 515, 142, 444, 477, 456, 316, 412, 398, 796, 247, 689, 705, 357, 127, 157, 79, 318, 482, 397, 540, 334, 291, 563, 732, 365, 346, 606, 778, 56, 35, 14, 98, 638, 97, 450, 491, 687, 351, 548, 323, 770, 166, 247, 397, 272, 482, 80, 312, 160, 434, 545, 349, 244, 246, 728, 705, 633, 101, 485, 767, 257, 367, 619, 362, 568, 564, 197, 61, 263, 13, 105, 190, 291, 754, 651, 480, 47, 513, 558, 765, 617, 155, 599, 256, 586, 270, 314, 567, 590, 167, 451, 415, 615, 512, 12, 221, 264, 702, 452, 70, 435, 229, 106, 404, 657, 176, 63, 253, 462, 772, 616, 502, 44, 345, 165, 245, 11, 321, 128, 334, 574, 407, 840, 527, 211, 317, 220, 824, 605, 823, 748, 480, 184, 524, 544, 703, 837, 651, 814, 689, 769, 207, 482, 200, 797, 331, 622, 590, 146, 623, 349, 799, 252, 702, 696, 240, 812, 558, 228, 231, 770, 809, 93, 221, 627, 754, 528, 570, 415, 713, 346, 218, 842, 604, 421, 577, 131, 74, 862, 496, 375, 533, 479, 323, 629, 746, 836, 130, 469, 381, 596, 227, 548, 115, 796, 344, 475, 91, 747, 611, 468, 653, 53, 58, 737, 655, 813, 385, 129, 638, 95, 669, 86, 319, 685, 609, 640, 719, 51, 342, 105, 238]);